data/solutions/recovery/degenerate/moderate/flexible/degenerate_moderate_instance20/10.sol
Elapsed time: 6.15
Upper bound: 154284540.0
Planning weighted value: 2210621156.0
C[0]=154284540.0
C[1]=154277593.0
C[2]=154248897.0
C[3]=154138836.0
y[0]=3
y[1]=1
y[2]=0
y[3]=0
y[4]=2
y[5]=0
y[6]=3
y[7]=3
y[8]=3
y[9]=1
y[10]=2
y[11]=3
y[12]=0
y[13]=0
y[14]=1
y[15]=2
y[16]=3
y[17]=1
y[18]=2
y[19]=1
y[20]=1
y[21]=0
y[22]=0
y[23]=2
y[24]=0
y[25]=1
y[26]=3
y[27]=2
y[28]=0
y[29]=2
y[30]=3
y[31]=3
y[32]=2
y[33]=0
y[34]=1
y[35]=1
